\ENCODING=ISO-8859-1
\Problem name: Assignment1_p2

Minimize
 obj: 150 x1 + 130 x2 + 150 x3 + 130 x4 + 150 x5 + 150 x6 + 100 x7 + 100 x8
Subject To
 Constraint11: x1 + x2 >= 22
 Constraint12: x3 + x4 >= -4
 Constraint13: x2 + x5 >= -4
 Constraint14: x4 + x6 >= 22
 Constraint15: x7 >= 12
 Constraint16: x8 >= -8
 Constraint21: x1 <= 90
 Constraint22: x2 <= 40
 Constraint23: x3 <= 90
 Constraint24: x4 <= 50
 Constraint25: x5 <= 100
 Constraint26: x6 <= 80
 Constraint27: x7 <= 120
 Constraint28: x8 <= 100
 Constraint31: x1 >= 0
 Constraint32: x2 >= 0
 Constraint33: x3 >= 0
 Constraint34: x4 >= 0
 Constraint35: x5 >= 0
 Constraint36: x6 >= 0
 Constraint37: x7 >= 0
 Constraint38: x8 >= 0
End
